Route #1: 37 11 20 8 5 36 45 21
Route #2: 33 22 38 9 46 29 4 35
Route #3: 12 39 26 13 1 23
Route #4: 7 41 31 47
Route #5: 30 25 18 14 43 24 27 16 10 42 3
Route #6: 6 2 48 17 19 44 49 34
Route #7: 40 32 28 15
Cost 741
Time 0.092574
